num_images = 30;
universe = 475;
images = [{1, 3, 5, 7, 9, 11, 13, 15, 17, 19, 21, 22, 23, 24, 25, 26, 27, 28, 29, 30, 32, 34, 433, 434, 435, 436, 444, 345, 475}, {265, 266, 267, 268, 269, 142, 143, 144, 145, 146, 147, 148, 149, 270, 271, 272, 36, 38, 40, 42, 44, 46, 48, 50, 52, 54, 56, 58, 60, 62, 63, 64, 65, 66, 67, 68, 69, 455, 72, 74, 76, 78, 80, 464, 82, 398, 211, 84, 212, 86, 213, 88, 214, 90, 215, 92, 216, 94, 217, 96, 218, 98, 99, 371, 372, 373, 374, 375}, {66, 67, 68, 71, 72, 73}, {36, 37, 38, 39, 40, 41, 96, 97, 100, 102, 104, 106, 108, 110, 112, 114, 116, 118, 120, 122, 124, 126, 128, 130, 132, 134, 136, 138, 140, 142, 144, 145, 146, 148, 150, 152, 154, 156, 158, 160, 162, 164, 166, 168, 170, 172, 174, 176, 178, 180, 182, 210, 246, 247, 252, 253, 254, 255, 285, 286, 295, 296, 297, 298, 299, 300, 301, 302, 303, 304, 305, 306, 307, 308, 309, 310, 343, 352, 353, 354, 355, 356, 357, 358, 359, 360, 397, 462}, {36, 37, 38, 39, 88, 89, 90, 91, 92, 93, 94, 95, 96, 97, 104, 105, 106, 107, 108, 109, 110, 111, 112, 113, 114, 115, 116, 117, 118, 119, 120, 121, 122, 123, 124, 125, 126, 127, 128, 129, 130, 131, 132, 133, 134, 135, 146, 147, 148, 149, 150, 151, 152, 153, 154, 155, 156, 157, 158, 159, 160, 161, 162, 163, 164, 165, 166, 167, 168, 169, 170, 171, 172, 173, 174, 175, 176, 177, 184, 186, 188, 190, 192, 194, 196, 198, 200, 202, 204, 206, 210, 211, 213, 215, 217, 219, 221, 223, 225, 227, 229, 231, 233, 235, 237, 239, 241, 243, 245, 246, 248, 250, 252, 253, 254, 255, 280, 281, 282, 283, 284, 285, 286, 287, 288, 295, 296, 297, 298, 299, 300, 301, 302, 303, 304, 305, 306, 307, 308, 309, 310, 311, 312, 313, 314, 343, 348, 349, 350, 351, 352, 353, 354, 355, 356, 357, 358, 359, 360, 366, 367, 368, 369, 370, 375, 376, 377, 378, 379, 380, 381, 382, 383, 384, 385, 386, 387, 391, 392, 393, 394, 395, 396, 397, 398, 399, 400, 401, 402, 403, 404, 462}, {36, 37, 38, 39, 40, 41, 42, 43, 44, 45, 46, 47, 48, 49, 50, 51, 52, 53, 84, 85, 86, 87, 88, 89, 90, 91, 92, 93, 94, 95, 96, 97, 128, 129, 130, 131, 132, 133, 134, 135, 136, 137, 138, 139, 140, 141, 142, 143, 144, 145, 146, 147, 148, 149, 150, 151, 152, 153, 154, 155, 156, 157, 158, 159, 160, 161, 162, 163, 176, 177, 178, 179, 180, 181, 204, 205, 206, 207, 208, 209, 210, 211, 212, 213, 214, 215, 216, 217, 218, 219, 220, 221, 222, 223, 224, 225, 226, 227, 228, 229, 230, 243, 244, 245, 252, 254, 257, 259, 261, 263, 265, 267, 269, 271, 273, 275, 277, 280, 281, 283, 285, 286, 287, 289, 290, 292, 295, 297, 299, 301, 303, 305, 307, 309, 310, 338, 339, 340, 341, 342, 343, 352, 353, 354, 355, 356, 357, 358, 359, 360, 361, 362, 363, 364, 365, 371, 372, 373, 374, 375, 376, 377, 378, 379, 380, 381, 382, 383, 384, 385, 386, 397, 398, 399, 400, 401, 402, 403, 404, 455, 462}, {118, 119, 120, 121, 122, 123, 124, 125, 126, 127, 128, 129, 130, 131, 132, 133, 198, 199, 200, 201, 202, 203, 204, 205, 206, 207, 208, 209, 252, 253, 254, 255, 256, 257, 258, 259, 260, 261, 262, 307, 308, 309, 310, 311, 313, 315, 317, 319, 321, 323, 325, 326, 328, 330, 331, 332, 334, 336, 339, 343, 396, 397, 418, 419, 420, 422, 423, 424, 425, 426, 427, 428, 429, 430, 431, 432, 452, 453, 454, 469, 470, 471, 472, 473}, {13, 14, 15, 16, 17, 18, 19, 20, 21, 22, 23, 36, 37, 38, 39, 40, 41, 42, 43, 44, 45, 46, 47, 48, 49, 50, 51, 52, 53, 54, 55, 56, 57, 58, 59, 60, 61, 62, 63, 64, 65, 66, 67, 68, 69, 70, 71, 72, 73, 74, 75, 76, 77, 78, 79, 80, 81, 82, 83, 84, 85, 86, 87, 88, 89, 90, 91, 92, 93, 94, 95, 96, 97, 98, 99, 140, 141, 142, 143, 144, 145, 146, 147, 148, 149, 150, 151, 152, 153, 154, 155, 156, 157, 158, 159, 160, 161, 162, 163, 164, 165, 166, 167, 168, 169, 170, 171, 211, 212, 213, 214, 215, 216, 217, 218, 219, 220, 221, 222, 223, 224, 225, 226, 227, 228, 229, 230, 231, 232, 233, 234, 235, 236, 265, 266, 267, 268, 269, 270, 271, 272, 273, 274, 275, 276, 277, 278, 279, 280, 281, 282, 283, 284, 285, 344, 345, 346, 347, 348, 350, 352, 354, 355, 356, 358, 360, 361, 362, 363, 371, 372, 373, 374, 375, 376, 377, 378, 379, 380, 381, 382, 383, 384, 385, 386, 398, 399, 400, 401, 402, 403, 404, 405, 406, 407, 408, 409, 410, 421, 440, 441, 442, 443, 455, 456, 457, 458, 459, 460, 461, 464, 468, 475}, {36, 37, 38, 39, 40, 41, 42, 43, 44, 45, 46, 47, 90, 91, 92, 93, 94, 95, 96, 97, 102, 103, 104, 105, 106, 107, 108, 109, 110, 111, 112, 113, 114, 115, 116, 117, 118, 119, 120, 121, 122, 123, 124, 125, 126, 127, 128, 129, 130, 131, 132, 133, 134, 135, 136, 137, 138, 139, 140, 141, 142, 143, 144, 145, 146, 147, 148, 149, 150, 151, 152, 153, 154, 155, 156, 157, 158, 159, 160, 161, 162, 163, 164, 165, 166, 167, 168, 169, 170, 171, 172, 173, 174, 175, 176, 177, 178, 179, 208, 209, 210, 211, 212, 213, 214, 233, 246, 247, 248, 249, 250, 251, 252, 253, 254, 255, 281, 282, 283, 284, 285, 286, 287, 288, 295, 296, 297, 298, 299, 300, 301, 302, 303, 304, 305, 306, 307, 308, 309, 310, 311, 312, 313, 314, 342, 343, 348, 349, 350, 351, 352, 353, 354, 355, 356, 357, 358, 359, 360, 361, 362, 366, 367, 368, 369, 370, 371, 372, 375, 376, 377, 379, 381, 383, 385, 387, 391, 392, 393, 394, 395, 396, 397, 398, 399, 400, 401, 402, 403, 404, 455, 462}, {36, 37, 38, 39, 40, 41, 42, 43, 44, 45, 92, 93, 94, 95, 96, 97, 100, 101, 102, 103, 104, 105, 106, 107, 108, 109, 110, 111, 112, 113, 114, 115, 116, 117, 118, 119, 120, 121, 132, 133, 134, 135, 136, 137, 138, 139, 140, 141, 142, 143, 144, 145, 146, 147, 148, 149, 150, 151, 152, 153, 154, 155, 156, 157, 158, 159, 160, 161, 162, 163, 164, 165, 170, 171, 172, 173, 174, 175, 176, 177, 178, 179, 180, 181, 182, 183, 209, 210, 211, 212, 241, 242, 243, 244, 245, 246, 247, 248, 249, 252, 253, 283, 284, 285, 286, 287, 288, 292, 293, 294, 295, 296, 297, 298, 299, 300, 301, 302, 303, 304, 305, 306, 307, 308, 309, 310, 311, 312, 343, 350, 351, 352, 353, 354, 355, 356, 357, 358, 359, 360, 361, 372, 373, 374, 388, 389, 391, 392, 393, 394, 395, 396, 398, 399, 400, 401, 402, 403, 404, 455, 462}, {395, 399, 400, 273, 274, 405, 150, 407, 151, 409, 152, 153, 411, 413, 415, 421, 303, 304, 305, 306, 307, 308, 309, 310, 311, 312, 313, 314, 315, 316, 317, 318, 319, 320, 321, 194, 195, 196, 197, 198, 199, 322, 219, 220, 358, 359, 360, 377, 114, 115, 116, 117, 118, 119, 376, 370, 378}, {422, 423, 328, 329, 424, 425, 426, 428, 430, 454, 432}, {5, 6, 7, 8, 9, 10, 11, 12, 13, 14, 15, 16, 100, 101, 102, 103, 104, 105, 106, 107, 108, 109, 110, 111, 112, 113, 114, 115, 152, 153, 154, 155, 156, 157, 158, 159, 160, 161, 162, 163, 164, 165, 166, 167, 168, 169, 170, 171, 172, 173, 174, 175, 176, 177, 178, 179, 180, 181, 182, 183, 184, 185, 186, 187, 188, 189, 190, 191, 192, 193, 194, 195, 233, 234, 235, 236, 237, 238, 239, 240, 241, 242, 243, 244, 245, 246, 247, 248, 249, 250, 251, 280, 281, 282, 283, 284, 285, 286, 287, 288, 289, 290, 291, 292, 293, 294, 295, 296, 297, 298, 299, 300, 301, 302, 303, 304, 346, 347, 348, 349, 350, 351, 352, 353, 354, 355, 356, 357, 358, 359, 366, 367, 368, 369, 370, 377, 378, 379, 380, 381, 382, 383, 384, 385, 386, 387, 388, 389, 390, 391, 392, 393, 394, 395, 400, 401, 402, 403, 404, 411, 412, 413, 414, 415, 416, 433, 434, 437, 438, 440, 442, 444, 445, 446, 447, 448, 449, 450, 451, 456, 457, 458, 461, 462, 463}, {36, 37, 38, 39, 40, 41, 42, 43, 44, 45, 46, 47, 48, 49, 50, 51, 52, 53, 54, 55, 56, 57, 58, 59, 100, 101, 102, 103, 104, 105, 106, 107, 108, 109, 110, 111, 112, 113, 114, 115, 116, 117, 118, 119, 120, 121, 122, 123, 124, 125, 126, 127, 128, 129, 130, 131, 132, 133, 134, 135, 136, 137, 138, 139, 140, 141, 168, 169, 170, 171, 172, 173, 174, 175, 176, 177, 178, 179, 180, 181, 182, 183, 184, 185, 186, 187, 188, 189, 190, 191, 192, 193, 194, 195, 196, 197, 198, 199, 200, 201, 202, 203, 204, 205, 206, 207, 208, 209, 210, 235, 236, 237, 238, 239, 240, 241, 242, 243, 244, 245, 246, 247, 248, 249, 250, 251, 252, 253, 254, 255, 256, 257, 258, 259, 260, 261, 262, 263, 264, 285, 286, 287, 288, 289, 290, 291, 292, 293, 294, 295, 296, 297, 298, 299, 300, 301, 302, 303, 304, 305, 306, 307, 308, 309, 310, 311, 312, 313, 314, 315, 316, 334, 335, 336, 337, 338, 339, 340, 341, 342, 343, 346, 347, 348, 349, 350, 351, 352, 353, 354, 355, 356, 357, 358, 359, 360, 361, 362, 363, 364, 365, 366, 367, 368, 369, 370, 371, 372, 373, 387, 388, 389, 390, 391, 392, 393, 394, 395, 396, 397, 411, 412, 420, 424, 425, 426, 427, 428, 429, 430, 431, 445, 446, 448, 450, 452, 454, 456, 457, 458, 461, 462, 463, 469, 470, 471, 472, 473}, {36, 37, 72, 73, 74, 75, 76, 77, 78, 79, 80, 81, 82, 83, 84, 85, 86, 87, 88, 89, 90, 91, 92, 93, 94, 95, 96, 97, 110, 111, 112, 113, 114, 115, 116, 117, 118, 119, 120, 121, 122, 123, 124, 125, 126, 127, 128, 129, 130, 131, 132, 133, 134, 135, 136, 137, 138, 139, 140, 141, 150, 151, 152, 153, 154, 155, 156, 157, 158, 159, 160, 161, 162, 163, 164, 165, 166, 167, 168, 169, 170, 171, 172, 173, 190, 191, 192, 193, 194, 195, 196, 197, 198, 199, 200, 201, 202, 203, 204, 205, 206, 207, 208, 209, 210, 219, 220, 221, 222, 223, 224, 225, 226, 227, 228, 229, 230, 231, 232, 233, 234, 235, 236, 237, 238, 252, 253, 254, 255, 256, 257, 258, 259, 260, 273, 274, 275, 276, 277, 278, 279, 280, 281, 282, 283, 284, 285, 286, 299, 300, 301, 302, 303, 304, 305, 306, 307, 308, 309, 310, 311, 312, 313, 314, 315, 316, 317, 318, 319, 320, 321, 322, 323, 324, 338, 339, 340, 341, 342, 343, 348, 349, 350, 351, 352, 353, 354, 355, 356, 357, 358, 359, 360, 361, 362, 363, 368, 369, 370, 376, 377, 378, 379, 380, 381, 382, 383, 384, 385, 386, 393, 394, 395, 396, 397, 399, 400, 401, 402, 403, 404, 405, 406, 407, 408, 409, 410, 411, 412, 413, 414, 415, 416, 417, 418, 419, 420, 421, 426, 427, 428, 429, 430, 431, 432, 440, 441, 442, 443, 452, 453, 456, 457, 459, 460, 462, 463, 468, 469, 470, 471, 472, 473}, {1, 2, 3, 4, 5, 6, 7, 8, 9, 10, 11, 12, 13, 14, 15, 16, 17, 18, 19, 20, 21, 22, 23, 24, 25, 26, 27, 28, 29, 30, 31, 32, 33, 34, 35, 36, 37, 38, 39, 40, 41, 42, 43, 44, 45, 46, 47, 48, 49, 50, 51, 52, 53, 54, 55, 56, 57, 58, 59, 60, 61, 62, 76, 77, 78, 79, 80, 81, 82, 83, 84, 85, 86, 87, 88, 89, 90, 91, 92, 93, 94, 95, 96, 97, 100, 101, 102, 103, 104, 105, 106, 107, 108, 109, 110, 111, 112, 113, 114, 115, 116, 117, 118, 119, 120, 121, 122, 123, 124, 125, 126, 127, 128, 129, 130, 131, 132, 133, 134, 135, 136, 137, 138, 139, 140, 141, 142, 143, 144, 145, 146, 147, 148, 149, 150, 151, 152, 153, 154, 155, 156, 157, 158, 159, 160, 161, 162, 163, 164, 165, 166, 167, 168, 169, 170, 171, 172, 173, 174, 175, 176, 177, 178, 179, 180, 181, 182, 183, 184, 185, 186, 187, 188, 189, 190, 191, 192, 193, 194, 195, 196, 197, 198, 199, 200, 201, 202, 203, 204, 205, 206, 207, 208, 209, 210, 211, 212, 213, 214, 215, 216, 217, 218, 219, 220, 221, 222, 223, 224, 225, 226, 227, 228, 229, 230, 231, 232, 233, 234, 235, 236, 237, 238, 239, 240, 241, 242, 243, 244, 245, 246, 247, 248, 249, 250, 251, 252, 253, 254, 255, 256, 257, 258, 259, 260, 261, 262, 263, 264, 265, 266, 267, 268, 269, 270, 271, 272, 273, 274, 275, 276, 277, 278, 279, 280, 281, 282, 283, 284, 285, 286, 287, 288, 289, 290, 291, 292, 293, 294, 295, 296, 297, 298, 299, 300, 301, 302, 303, 304, 305, 306, 307, 308, 309, 310, 311, 312, 313, 314, 315, 316, 317, 318, 319, 320, 321, 322, 323, 324, 325, 331, 332, 333, 334, 335, 336, 337, 338, 339, 340, 341, 342, 343, 345, 346, 347, 348, 349, 350, 351, 352, 353, 354, 355, 356, 357, 358, 359, 360, 361, 362, 363, 364, 365, 366, 367, 368, 369, 370, 371, 372, 373, 374, 375, 376, 377, 378, 379, 380, 381, 382, 383, 384, 385, 386, 387, 388, 389, 390, 391, 392, 393, 394, 395, 396, 397, 398, 399, 400, 401, 402, 403, 404, 405, 406, 407, 408, 409, 410, 411, 412, 413, 414, 415, 416, 417, 418, 419, 420, 422, 423, 424, 425, 426, 427, 428, 429, 430, 431, 432, 433, 434, 435, 436, 437, 438, 439, 440, 441, 442, 443, 444, 445, 446, 447, 448, 449, 450, 451, 452, 453, 454, 455, 456, 457, 458, 460, 461, 462, 463, 464, 468, 469, 470, 471, 472, 473, 475}, {15, 16, 17, 18, 19, 20, 21, 22, 440, 441, 442, 443, 456, 457, 458, 459, 460, 461, 344, 475}, {36, 37, 38, 39, 40, 41, 42, 43, 44, 45, 46, 47, 48, 49, 82, 83, 84, 85, 86, 87, 88, 89, 90, 91, 92, 93, 94, 95, 96, 97, 100, 101, 102, 103, 104, 105, 106, 107, 108, 109, 110, 111, 112, 113, 114, 115, 116, 117, 118, 119, 120, 121, 122, 123, 124, 125, 126, 127, 128, 129, 130, 131, 132, 133, 134, 135, 136, 137, 138, 139, 140, 141, 142, 143, 148, 149, 150, 151, 152, 153, 154, 155, 156, 157, 158, 159, 160, 161, 162, 163, 164, 165, 166, 167, 168, 169, 170, 171, 172, 173, 174, 175, 176, 177, 178, 179, 180, 181, 182, 183, 184, 185, 186, 187, 188, 189, 190, 191, 192, 193, 194, 195, 196, 197, 198, 199, 200, 201, 202, 203, 204, 205, 206, 207, 208, 209, 210, 217, 218, 219, 220, 221, 222, 223, 224, 225, 226, 227, 228, 229, 230, 231, 232, 233, 234, 235, 236, 237, 238, 239, 240, 241, 242, 243, 244, 245, 246, 247, 248, 249, 250, 251, 252, 253, 254, 255, 256, 257, 258, 271, 272, 273, 274, 275, 276, 277, 278, 279, 280, 281, 282, 283, 284, 285, 286, 287, 288, 289, 294, 295, 296, 297, 298, 299, 300, 301, 302, 303, 304, 305, 306, 307, 308, 309, 310, 311, 312, 313, 314, 341, 342, 343, 347, 348, 349, 350, 351, 352, 353, 354, 355, 356, 357, 358, 359, 360, 361, 362, 363, 364, 366, 367, 368, 369, 370, 375, 376, 377, 378, 379, 380, 381, 382, 383, 384, 385, 386, 387, 388, 391, 392, 393, 394, 395, 396, 397, 398, 399, 400, 401, 402, 403, 404, 440, 441, 455, 456, 461, 462, 469, 470, 471, 472, 473}, {28, 433, 465, 444, 29, 30, 31}, {36, 37, 38, 39, 40, 41, 42, 43, 44, 45, 46, 47, 48, 49, 50, 51, 52, 53, 54, 55, 56, 57, 80, 81, 82, 83, 84, 85, 86, 87, 88, 89, 90, 91, 92, 93, 94, 95, 96, 97, 130, 131, 132, 133, 134, 135, 136, 137, 138, 139, 140, 141, 142, 143, 144, 145, 146, 147, 148, 149, 150, 151, 152, 153, 154, 155, 206, 207, 208, 209, 210, 211, 212, 213, 214, 215, 216, 217, 218, 219, 220, 221, 222, 256, 257, 258, 259, 260, 261, 262, 263, 264, 265, 266, 267, 268, 269, 270, 271, 272, 273, 274, 275, 276, 309, 310, 336, 337, 338, 339, 340, 341, 342, 343, 356, 357, 358, 359, 360, 361, 362, 363, 364, 365, 371, 372, 373, 374, 375, 376, 377, 378, 379, 380, 397, 398, 399, 400, 401, 409, 410, 425, 426, 427, 455, 472}, {64, 65, 66, 62, 63}, {64, 67, 66, 99}, {1, 2, 3, 4, 5, 6, 7, 8, 9, 10, 26, 27, 28, 29, 30, 31, 32, 33, 34, 35, 100, 101, 102, 103, 104, 105, 106, 107, 108, 109, 110, 111, 112, 113, 114, 115, 116, 117, 118, 119, 120, 121, 122, 123, 124, 125, 184, 185, 186, 187, 188, 189, 190, 191, 192, 193, 194, 195, 196, 197, 198, 199, 200, 201, 248, 249, 250, 251, 311, 312, 313, 314, 315, 316, 317, 318, 319, 320, 321, 322, 323, 324, 325, 326, 327, 328, 329, 330, 331, 366, 367, 368, 369, 370, 388, 389, 390, 391, 392, 393, 394, 395, 396, 411, 412, 413, 414, 415, 416, 417, 418, 419, 420, 422, 430, 431, 432, 433, 434, 435, 436, 437, 438, 439, 444, 445, 446, 447, 448, 449, 450, 451, 452, 453, 454, 463, 465, 466, 467, 469, 470, 474}, {36, 37, 38, 39, 40, 41, 42, 43, 44, 45, 46, 47, 48, 49, 50, 51, 52, 53, 54, 55, 86, 87, 88, 89, 90, 91, 92, 93, 94, 95, 96, 97, 106, 107, 108, 109, 110, 111, 112, 113, 114, 115, 116, 117, 118, 119, 120, 121, 122, 123, 124, 125, 126, 127, 128, 129, 130, 131, 132, 133, 134, 135, 136, 137, 138, 139, 140, 141, 142, 143, 144, 145, 146, 147, 148, 149, 150, 151, 152, 153, 154, 155, 156, 157, 158, 159, 186, 187, 188, 189, 190, 191, 192, 193, 194, 195, 196, 197, 198, 199, 200, 201, 202, 203, 204, 205, 206, 207, 208, 209, 210, 211, 212, 213, 214, 215, 216, 217, 218, 219, 220, 221, 222, 223, 224, 225, 226, 252, 253, 254, 255, 256, 257, 258, 259, 260, 261, 262, 263, 264, 265, 266, 268, 295, 296, 297, 298, 299, 300, 301, 302, 303, 304, 305, 306, 307, 308, 309, 310, 311, 312, 313, 314, 315, 316, 317, 318, 338, 339, 340, 341, 342, 343, 354, 355, 356, 357, 358, 359, 360, 361, 362, 363, 364, 365, 366, 367, 368, 369, 370, 371, 372, 373, 374, 375, 376, 377, 378, 379, 380, 381, 382, 383, 384, 391, 392, 393, 394, 395, 396, 397, 398, 399, 400, 401, 402, 403, 411, 412, 413, 414, 419, 420, 446, 447, 448, 449, 450, 451, 452, 453, 455, 462, 463, 469, 473}, {32, 33, 433, 434, 435, 465, 466, 474, 29, 30, 31}, {3, 4, 5, 6, 7, 8, 9, 10, 11, 12, 13, 14, 15, 16, 17, 18, 21, 22, 23, 24, 25, 26, 27, 28, 29, 100, 101, 102, 103, 104, 105, 106, 107, 162, 163, 164, 165, 166, 167, 168, 169, 170, 171, 172, 173, 174, 175, 176, 177, 178, 179, 180, 181, 182, 183, 184, 185, 186, 187, 229, 230, 231, 232, 233, 234, 235, 236, 237, 238, 239, 240, 241, 242, 243, 244, 245, 246, 247, 248, 249, 250, 251, 280, 281, 282, 283, 284, 285, 286, 287, 288, 289, 290, 291, 292, 293, 294, 295, 296, 345, 346, 347, 348, 349, 350, 351, 366, 387, 388, 389, 390, 391, 433, 434, 435, 436, 440, 441, 442, 443, 444, 445, 446, 447, 456, 457, 458, 461, 462, 468}, {36, 37, 38, 39, 40, 41, 42, 43, 44, 45, 46, 47, 48, 49, 50, 51, 78, 79, 80, 81, 82, 83, 84, 85, 86, 87, 88, 89, 90, 91, 92, 93, 94, 95, 96, 97, 112, 113, 114, 115, 116, 117, 118, 119, 120, 121, 122, 123, 124, 125, 126, 127, 128, 129, 130, 131, 132, 133, 134, 135, 136, 137, 138, 139, 140, 141, 142, 143, 144, 145, 146, 147, 148, 149, 150, 151, 152, 153, 154, 155, 156, 157, 192, 193, 194, 195, 196, 197, 198, 199, 200, 201, 202, 203, 204, 205, 206, 207, 208, 209, 210, 211, 212, 213, 214, 215, 216, 217, 218, 219, 220, 221, 222, 223, 224, 252, 253, 254, 255, 256, 269, 270, 271, 272, 273, 274, 275, 276, 277, 278, 301, 302, 303, 304, 305, 306, 307, 308, 309, 310, 311, 312, 313, 314, 315, 316, 317, 318, 319, 320, 339, 340, 341, 342, 343, 355, 356, 357, 358, 359, 360, 361, 362, 363, 364, 365, 369, 370, 371, 372, 373, 374, 375, 376, 377, 378, 379, 380, 381, 382, 394, 395, 396, 397, 398, 399, 400, 401, 402, 407, 408, 409, 410, 411, 412, 413, 414, 415, 416, 417, 418, 419, 420, 438, 439, 450, 451, 455, 464}, {36, 37, 38, 39, 40, 41, 42, 43, 94, 95, 96, 97, 100, 101, 102, 103, 104, 105, 106, 107, 108, 109, 110, 111, 112, 113, 114, 115, 116, 117, 118, 119, 120, 121, 122, 123, 138, 139, 140, 141, 142, 143, 144, 145, 146, 147, 148, 149, 150, 151, 152, 153, 154, 155, 156, 157, 158, 159, 160, 161, 162, 163, 164, 165, 166, 167, 168, 169, 170, 171, 172, 173, 174, 175, 176, 177, 178, 179, 180, 181, 182, 183, 210, 245, 246, 247, 252, 253, 254, 255, 285, 286, 295, 296, 297, 298, 299, 300, 301, 302, 303, 304, 305, 306, 307, 308, 309, 310, 343, 352, 353, 354, 355, 356, 357, 358, 359, 360, 397, 462}, {24, 475, 22, 23}, {7, 8, 27, 28, 29, 30, 31, 32, 33, 34, 35, 433, 434, 435, 436, 444, 445, 465, 466, 467}];
costs = [225250, 399000, 217314, 372600, 410400, 397800, 552300, 853920, 385200, 376200, 151370, 374400, 303300, 588276, 423160, 1067810, 210930, 450000, 148970, 376200, 230680, 329400, 747810, 455400, 149830, 288580, 250240, 374400, 120600, 161650];
clouds = [{}, {67, 40, 267, 142, 271, 80, 272, 50, 82, 84, 373, 54, 92}, {}, {36, 37, 38, 39, 40, 41, 96, 97, 100, 102, 104, 106, 108, 110, 112, 114, 116, 118, 120, 122, 124, 126, 128, 130, 132, 134, 136, 138, 142, 144, 145, 146, 148, 150, 152, 154, 156, 158, 160, 162, 164, 166, 168, 170, 172, 174, 176, 178, 180, 182, 210, 246, 247, 252, 253, 254, 255, 285, 286, 295, 296, 297, 298, 299, 300, 301, 302, 303, 304, 305, 306, 307, 308, 309, 310, 352, 353, 354, 355, 356, 357, 358, 359, 360, 397, 462}, {36, 37, 38, 89, 90, 91, 92, 93, 94, 95, 96, 97, 104, 105, 106, 107, 108, 109, 111, 112, 113, 114, 115, 118, 119, 120, 121, 122, 123, 124, 125, 126, 127, 128, 129, 130, 131, 132, 133, 134, 135, 146, 147, 148, 149, 150, 151, 152, 153, 154, 155, 156, 157, 158, 159, 160, 162, 163, 164, 165, 166, 167, 168, 170, 171, 172, 173, 174, 175, 176, 177, 184, 186, 188, 190, 192, 194, 196, 200, 202, 204, 206, 210, 211, 213, 215, 219, 221, 223, 225, 227, 229, 231, 233, 235, 237, 239, 241, 243, 245, 246, 248, 250, 252, 253, 254, 255, 280, 281, 283, 284, 285, 286, 287, 288, 295, 296, 297, 298, 299, 300, 301, 302, 303, 304, 305, 306, 307, 308, 309, 311, 312, 314, 343, 348, 349, 350, 351, 352, 353, 354, 355, 356, 357, 358, 359, 360, 366, 367, 368, 369, 370, 375, 377, 378, 380, 381, 382, 383, 384, 385, 386, 391, 392, 393, 394, 395, 396, 397, 398, 400, 401, 402, 403, 404, 462}, {384, 130, 132, 261, 136, 265, 267, 269, 143, 144, 273, 403, 148, 404, 280, 152, 154, 155, 156, 157, 281, 159, 283, 285, 162, 289, 290, 37, 43, 45, 176, 49, 177, 178, 52, 179, 309, 310, 204, 207, 210, 211, 338, 213, 86, 87, 214, 217, 90, 91, 92, 220, 221, 343, 96, 97, 225, 227, 228, 229, 230, 352, 355, 356, 358, 359, 361, 362, 365, 371, 245, 375, 377, 379, 252, 383}, {}, {386, 140, 14, 271, 272, 401, 146, 403, 23, 279, 155, 156, 285, 168, 46, 51, 60, 67, 70, 456, 457, 86, 89, 91, 94, 95, 224, 354, 361, 235, 236, 373, 378, 382, 383}, {36, 37, 38, 39, 41, 42, 43, 44, 45, 46, 47, 90, 91, 93, 94, 95, 96, 97, 102, 103, 104, 105, 107, 108, 109, 111, 112, 113, 114, 115, 117, 118, 120, 121, 122, 123, 124, 126, 127, 128, 129, 130, 131, 132, 133, 134, 135, 136, 137, 138, 139, 141, 142, 143, 145, 146, 148, 149, 151, 152, 153, 154, 156, 159, 160, 161, 163, 164, 165, 167, 168, 169, 171, 172, 173, 174, 175, 176, 177, 178, 208, 211, 212, 213, 246, 247, 248, 250, 253, 255, 282, 284, 285, 286, 287, 296, 297, 298, 299, 300, 301, 302, 303, 304, 305, 306, 307, 308, 309, 310, 311, 313, 342, 343, 348, 349, 350, 354, 355, 356, 358, 359, 360, 362, 367, 368, 369, 371, 372, 375, 376, 377, 379, 381, 383, 385, 387, 392, 395, 397, 399, 400, 402, 403, 404, 455}, {36, 37, 38, 39, 40, 41, 42, 43, 44, 45, 92, 93, 94, 95, 96, 97, 101, 103, 104, 105, 106, 107, 108, 109, 111, 112, 113, 114, 115, 116, 117, 118, 119, 120, 121, 132, 133, 134, 135, 136, 137, 138, 139, 140, 141, 143, 144, 145, 146, 147, 148, 149, 150, 151, 152, 153, 154, 155, 156, 157, 158, 159, 160, 161, 163, 164, 165, 170, 171, 172, 173, 174, 175, 176, 177, 178, 179, 180, 181, 182, 183, 209, 210, 211, 212, 241, 242, 243, 244, 245, 246, 247, 248, 249, 252, 253, 283, 284, 286, 287, 288, 292, 293, 294, 296, 297, 298, 299, 300, 301, 302, 303, 304, 305, 306, 307, 308, 310, 311, 312, 343, 350, 351, 352, 353, 355, 356, 357, 358, 359, 360, 361, 372, 373, 374, 388, 389, 391, 393, 394, 395, 396, 399, 400, 401, 402, 403, 404, 455, 462}, {400, 273, 405, 150, 151, 152, 409, 413, 415, 421, 303, 306, 307, 311, 314, 315, 316, 319, 320, 195, 196, 197, 198, 219, 220, 359, 360, 370, 118, 119, 376}, {454, 424, 426, 428, 430, 432}, {}, {131, 168, 169, 296, 45, 430, 177, 53, 183, 56, 186, 314, 196, 197, 454, 456, 206, 341, 471, 347, 352, 354, 101, 115, 116}, {36, 37, 72, 73, 74, 75, 76, 77, 78, 79, 80, 81, 82, 83, 85, 86, 87, 88, 89, 91, 92, 93, 94, 95, 96, 97, 110, 111, 112, 113, 114, 115, 117, 118, 119, 120, 121, 122, 124, 125, 126, 127, 128, 129, 130, 131, 132, 133, 135, 139, 140, 150, 151, 152, 153, 154, 155, 156, 157, 158, 160, 161, 162, 164, 165, 166, 168, 169, 170, 171, 172, 173, 190, 191, 192, 193, 194, 195, 196, 197, 198, 200, 201, 202, 203, 204, 206, 207, 208, 209, 210, 219, 220, 221, 222, 223, 224, 225, 226, 227, 228, 229, 231, 232, 233, 234, 235, 236, 237, 238, 252, 253, 254, 255, 256, 257, 259, 260, 274, 275, 276, 277, 278, 279, 280, 281, 282, 283, 284, 285, 286, 299, 300, 301, 302, 303, 304, 305, 306, 307, 308, 309, 310, 311, 312, 313, 315, 316, 318, 319, 320, 322, 323, 324, 338, 339, 340, 341, 343, 348, 350, 351, 352, 353, 354, 355, 356, 357, 358, 359, 361, 362, 363, 368, 369, 370, 376, 377, 378, 379, 380, 382, 383, 385, 386, 393, 394, 395, 396, 397, 399, 400, 401, 402, 403, 404, 405, 406, 407, 409, 410, 411, 412, 413, 414, 415, 416, 417, 418, 419, 420, 421, 428, 429, 430, 431, 432, 440, 441, 442, 443, 452, 456, 460, 462, 463, 468, 469, 470, 471, 472, 473}, {161, 166, 396, 141, 175, 370, 122}, {456, 457, 458, 459, 461, 16, 17, 18, 19, 21, 440, 441, 442, 475}, {36, 37, 38, 39, 40, 42, 43, 44, 45, 47, 48, 49, 83, 86, 87, 90, 92, 93, 94, 95, 96, 97, 100, 101, 102, 103, 104, 105, 106, 107, 108, 109, 110, 111, 114, 115, 116, 117, 119, 121, 122, 123, 124, 125, 126, 128, 130, 131, 132, 134, 135, 137, 138, 139, 140, 141, 142, 143, 150, 152, 153, 154, 155, 156, 157, 158, 159, 160, 161, 162, 165, 167, 170, 171, 172, 173, 175, 176, 177, 179, 180, 182, 183, 184, 185, 186, 187, 188, 190, 192, 194, 196, 197, 198, 199, 200, 201, 202, 203, 204, 205, 207, 208, 209, 210, 217, 219, 220, 221, 222, 223, 224, 225, 227, 229, 230, 231, 232, 235, 236, 237, 239, 241, 242, 243, 244, 245, 246, 247, 250, 251, 253, 257, 258, 271, 272, 273, 274, 275, 277, 278, 280, 281, 282, 283, 285, 286, 287, 288, 295, 296, 299, 300, 301, 302, 303, 305, 306, 307, 309, 311, 312, 314, 341, 342, 343, 350, 351, 353, 354, 355, 357, 358, 359, 360, 361, 363, 364, 367, 369, 370, 377, 378, 379, 380, 382, 383, 384, 385, 386, 387, 388, 391, 392, 393, 395, 398, 399, 400, 402, 404, 440, 441, 461, 462, 469, 470, 471, 473}, {28, 433, 465, 444, 29, 30, 31}, {256, 130, 131, 132, 262, 135, 264, 139, 267, 141, 268, 398, 272, 273, 147, 152, 409, 153, 155, 37, 39, 40, 426, 44, 45, 49, 309, 54, 310, 56, 206, 336, 81, 338, 82, 83, 341, 342, 343, 210, 85, 86, 212, 88, 213, 215, 91, 92, 216, 217, 219, 220, 222, 356, 358, 359, 363, 364, 371, 378, 379, 380}, {65, 63}, {66, 67}, {103, 104, 395, 463, 116, 312, 249, 250}, {259, 260, 255, 134, 262, 138, 396, 400, 401, 147, 149, 152, 411, 155, 159, 419, 297, 300, 45, 46, 303, 307, 52, 309, 315, 190, 192, 195, 201, 203, 205, 462, 207, 208, 209, 88, 90, 91, 218, 95, 96, 223, 225, 226, 354, 355, 356, 357, 107, 365, 371, 116, 118, 121, 379, 124, 126, 383}, {433, 434, 466, 474, 29, 30, 31}, {3, 6, 7, 8, 9, 11, 13, 14, 15, 16, 18, 21, 22, 25, 26, 28, 102, 104, 105, 106, 162, 164, 165, 169, 171, 172, 175, 176, 179, 180, 181, 182, 183, 184, 185, 186, 187, 230, 232, 233, 235, 236, 237, 238, 239, 240, 241, 242, 245, 247, 250, 251, 281, 282, 284, 285, 286, 288, 289, 290, 292, 294, 295, 296, 345, 346, 347, 348, 350, 387, 435, 440, 441, 442, 444, 445, 456, 457, 461, 462, 468}, {36, 37, 38, 41, 42, 43, 44, 45, 48, 50, 51, 79, 80, 84, 85, 88, 90, 94, 95, 97, 112, 114, 115, 119, 121, 122, 123, 124, 126, 129, 131, 132, 133, 134, 135, 137, 138, 139, 140, 141, 142, 143, 147, 148, 150, 151, 152, 153, 155, 156, 157, 192, 193, 195, 196, 197, 199, 200, 201, 202, 203, 205, 206, 208, 209, 211, 213, 215, 216, 217, 218, 219, 220, 222, 223, 224, 252, 254, 255, 256, 271, 273, 274, 275, 277, 301, 302, 304, 306, 309, 310, 311, 313, 314, 316, 318, 319, 320, 339, 342, 355, 358, 360, 361, 362, 365, 371, 373, 374, 375, 376, 377, 379, 381, 395, 396, 397, 398, 400, 401, 402, 407, 408, 409, 410, 411, 412, 414, 416, 418, 439, 450, 451, 455}, {36, 37, 38, 39, 40, 41, 42, 43, 94, 95, 100, 101, 102, 103, 104, 106, 107, 108, 109, 111, 112, 114, 117, 118, 119, 120, 122, 123, 139, 141, 144, 145, 147, 148, 150, 154, 155, 156, 157, 158, 160, 161, 163, 164, 166, 167, 168, 169, 173, 174, 175, 176, 177, 178, 181, 183, 210, 245, 246, 247, 252, 254, 255, 285, 286, 295, 296, 297, 298, 300, 301, 303, 304, 305, 307, 308, 309, 310, 343, 353, 354, 355, 356, 357, 358, 359, 360, 462}, {475, 22, 23}, {33, 7, 8, 465, 434, 435, 436, 29, 30, 445}];
areas = [138, 292, 13, 4968, 5023, 46056, 2125, 7980, 34522, 8096, 17, 35853, 6251, 115444, 126209, 24442, 7860, 4727, 70389, 7934, 225, 441, 5451, 4005, 1572, 908, 1806, 437, 0, 7008, 342, 54, 10, 94, 8, 35, 524, 684, 4153, 3191, 5290, 42588, 138242, 53760, 296987, 602, 39750, 83047, 144554, 5, 7117, 7699, 3067, 3979, 2905, 126, 55, 1263, 2352, 593, 199, 226, 5269, 34412, 1918, 24, 1, 46, 16, 9, 2, 751, 42, 2, 97, 8, 20, 53, 1182, 507, 335, 1216, 7371, 3, 8856, 7, 1521, 11, 36, 0, 20, 3, 33, 114, 38, 0, 2605, 1791, 1783, 3512, 0, 2, 358, 0, 0, 3, 32, 11, 5, 74, 16, 30, 194, 95, 2, 1, 12, 69, 254, 31, 0, 0, 8, 10, 11745, 2104, 2120, 1873, 785, 1061, 2626, 513, 17, 2, 822, 1051, 319, 10596, 75, 39, 9, 6555, 105, 14, 6074, 1014, 159, 29, 4955, 15766, 9843, 734, 986, 236, 20299, 123, 33346, 1375, 1524, 268, 2601, 476, 13932, 2492, 111990, 35063, 59875, 1321, 547, 1981, 3478, 3984, 32870, 3640, 19846, 20826, 396, 6204, 201, 47, 15, 17, 14, 115, 39, 16, 214, 41, 73, 385, 155, 4, 606, 53, 305, 1315, 52, 0, 519, 93, 90, 80, 29, 51, 112, 23, 18, 19, 13, 69, 93, 89, 139, 1703, 661, 127, 3118, 584, 1086, 5851, 2672, 8, 37, 15, 6529, 550, 507, 152, 375, 750, 330, 584, 403, 501, 372, 146, 52, 6, 10, 45, 682, 344, 328, 86, 17, 29, 264, 353, 62, 1307, 250, 328, 337, 0, 93, 397, 139, 49, 728, 138, 1450, 273, 579, 268, 554, 241, 492, 84, 160, 159, 334, 49, 84, 29, 12, 168, 33, 157, 438, 76, 73, 64, 22, 40, 0, 18, 9, 67, 147, 269, 6, 110, 74, 1, 1, 1, 93, 77, 2645, 549, 36, 3079, 372, 317, 82, 281, 477, 717, 2134, 544, 122, 520, 285, 56, 54, 82, 116, 57, 20, 6, 40, 246, 56, 23, 5, 3, 25, 115, 2574, 1384, 157, 26, 6947, 7355, 8302, 7554, 7208, 22433, 12358, 24354, 27611, 83005, 126713, 18059, 31091, 233035, 39907, 31418, 9614, 3289, 3369, 180508, 80372, 21416, 5313, 3328, 8279, 3503, 2134, 5063, 3110, 18414, 263, 160, 9422, 590, 1457, 1473, 585, 1351, 336, 3130, 1591, 27673, 1654, 1444, 2253, 13078, 223501, 145600, 442, 482, 301, 11, 762, 1643, 2169, 291, 31, 26, 24, 338975, 1096, 296, 10962, 15733, 13332, 4897, 9418, 1413, 3, 1048, 419, 315, 1430, 400, 0, 1761, 22746, 3687, 188, 3484, 2, 1, 8, 3, 8, 132, 38, 17, 5, 13, 229, 444, 1412, 1292, 4076, 2889, 716, 610, 1631, 24600, 14014, 549, 418, 5457, 136, 633, 277, 13, 1215, 1388, 9466, 28635, 4484, 4073, 3496, 9997, 2783, 2031, 46, 2441, 2224, 1037, 900, 99, 278, 0, 3332, 4788, 3245, 7210, 217, 29242, 9158, 20707, 591, 1155, 27641, 59, 237780, 564816, 3803, 5469, 62];
max_cloud_area = 1480038297;
resolution = [50, 50, 30, 30, 30, 30, 50, 50, 30, 30, 50, 30, 36, 32, 50, 50, 50, 30, 50, 30, 50, 30, 50, 30, 50, 50, 50, 30, 30, 50];
incidence_angle = [194, 126, 75, 73, 180, 149, 130, 239, 150, 101, 195, 96, 295, 159, 389, 289, 99, 230, 137, 102, 81, 292, 244, 289, 73, 143, 81, 93, 93, 187];
